output/acceleration_ilp.mps
NAME acceleration_srl_ilp
* Max problem is converted into Min one
ROWS
 N  OBJ
 L  constraint1_7160
 L  constraint1_5570
 L  constraint1_4040
 L  constraint1_6360
 L  constraint1_900
 L  constraint1_1440
 L  constraint1_2630
 L  constraint1_6120
 L  constraint1_7008
 L  constraint1_7002
 L  constraint1_7004
 L  constraint1_7007
 L  constraint1_7001
 L  constraint1_7003
 L  constraint1_7005
 L  constraint1_7006
 L  constraint2_7020
 L  constraint2_7021
 L  constraint2_7022
 L  constraint2_7023
 L  constraint2_7160
 L  constraint2_7161
 L  constraint2_7162
 L  constraint2_7163
 L  constraint2_5570
 L  constraint2_5571
 L  constraint2_5572
 L  constraint2_5573
 L  constraint2_4040
 L  constraint2_4041
 L  constraint2_4042
 L  constraint2_4043
 L  constraint2_6750
 L  constraint2_6751
 L  constraint2_6752
 L  constraint2_6753
 L  constraint2_6360
 L  constraint2_6361
 L  constraint2_6362
 L  constraint2_6363
 L  constraint2_3240
 L  constraint2_3241
 L  constraint2_3242
 L  constraint2_3243
 L  constraint2_6000
 L  constraint2_6001
 L  constraint2_6002
 L  constraint2_6003
 L  constraint2_6290
 L  constraint2_6291
 L  constraint2_6292
 L  constraint2_6293
 L  constraint2_900
 L  constraint2_901
 L  constraint2_902
 L  constraint2_903
 L  constraint2_6680
 L  constraint2_6681
 L  constraint2_6682
 L  constraint2_6683
 L  constraint2_5390
 L  constraint2_5391
 L  constraint2_5392
 L  constraint2_5393
 L  constraint2_1440
 L  constraint2_1441
 L  constraint2_1442
 L  constraint2_1443
 L  constraint2_2630
 L  constraint2_2631
 L  constraint2_2632
 L  constraint2_2633
 L  constraint2_1060
 L  constraint2_1061
 L  constraint2_1062
 L  constraint2_1063
 L  constraint2_5630
 L  constraint2_5631
 L  constraint2_5632
 L  constraint2_5633
 L  constraint2_6120
 L  constraint2_6121
 L  constraint2_6122
 L  constraint2_6123
 L  constraint2_7000
 L  constraint2_7001
 L  constraint2_7002
 L  constraint2_7003
COLUMNS
    MARKER    'MARKER'                 'INTORG'
    Z_716_0_0  OBJ       -8.1890843335770055e-03
    Z_716_0_0  constraint1_7160  1
    Z_716_0_0  constraint2_7160  1
    Z_716_0_1  OBJ       -7.7498263258330580e-01
    Z_716_0_1  constraint1_7160  1
    Z_716_0_1  constraint2_7161  1
    Z_716_0_2  OBJ       -1.1285632600673916e-03
    Z_716_0_2  constraint1_7160  1
    Z_716_0_2  constraint2_7162  1
    Z_716_0_3  OBJ       -3.7407614315386646e-03
    Z_716_0_3  constraint1_7160  1
    Z_716_0_3  constraint2_7163  1
    Z_716_0_4  OBJ       -1.1195895839151117e-01
    Z_716_0_4  constraint1_7160  1
    Z_557_0_0  OBJ       -1.5414166316834132e-02
    Z_557_0_0  constraint1_5570  1
    Z_557_0_0  constraint2_5570  1
    Z_557_0_1  OBJ       -7.8488888324283834e-01
    Z_557_0_1  constraint1_5570  1
    Z_557_0_1  constraint2_5571  1
    Z_557_0_2  OBJ       -3.4407139383733909e-02
    Z_557_0_2  constraint1_5570  1
    Z_557_0_2  constraint2_5572  1
    Z_557_0_3  OBJ       -1.3344399482169644e-02
    Z_557_0_3  constraint1_5570  1
    Z_557_0_3  constraint2_5573  1
    Z_557_0_4  OBJ       -5.1945411574423964e-02
    Z_557_0_4  constraint1_5570  1
    Z_404_0_0  OBJ       -7.2685340350981597e-03
    Z_404_0_0  constraint1_4040  1
    Z_404_0_0  constraint2_4040  1
    Z_404_0_1  OBJ       -6.1184661259925743e-01
    Z_404_0_1  constraint1_4040  1
    Z_404_0_1  constraint2_4041  1
    Z_404_0_2  OBJ       -1.7934677362966129e-02
    Z_404_0_2  constraint1_4040  1
    Z_404_0_2  constraint2_4042  1
    Z_404_0_3  OBJ       -1.2435777978689196e-01
    Z_404_0_3  constraint1_4040  1
    Z_404_0_3  constraint2_4043  1
    Z_404_0_4  OBJ       -1.3859239621578623e-01
    Z_404_0_4  constraint1_4040  1
    Z_636_0_0  OBJ       -6.0979451083891245e-03
    Z_636_0_0  constraint1_6360  1
    Z_636_0_0  constraint2_6360  1
    Z_636_0_1  OBJ       -2.3171615625691782e-03
    Z_636_0_1  constraint1_6360  1
    Z_636_0_1  constraint2_6361  1
    Z_636_0_2  OBJ       -5.4759988270947757e-01
    Z_636_0_2  constraint1_6360  1
    Z_636_0_2  constraint2_6362  1
    Z_636_0_3  OBJ       -4.5721296168978794e-03
    Z_636_0_3  constraint1_6360  1
    Z_636_0_3  constraint2_6363  1
    Z_636_0_4  OBJ       -3.3941288100266620e-01
    Z_636_0_4  constraint1_6360  1
    Z_90_0_0  OBJ       -1.2514652362366163e-01
    Z_90_0_0  constraint1_900  1
    Z_90_0_0  constraint2_900  1
    Z_90_0_1  OBJ       -5.5708146629738986e-01
    Z_90_0_1  constraint1_900  1
    Z_90_0_1  constraint2_901  1
    Z_90_0_2  OBJ       -1.4123700284724228e-03
    Z_90_0_2  constraint1_900  1
    Z_90_0_2  constraint2_902  1
    Z_90_0_3  OBJ       -6.0322419241834596e-02
    Z_90_0_3  constraint1_900  1
    Z_90_0_3  constraint2_903  1
    Z_90_0_4  OBJ       -1.5603722080864157e-01
    Z_90_0_4  constraint1_900  1
    Z_144_0_0  OBJ       -3.1120586216521837e-02
    Z_144_0_0  constraint1_1440  1
    Z_144_0_0  constraint2_1440  1
    Z_144_0_1  OBJ       -7.4112588132440627e-01
    Z_144_0_1  constraint1_1440  1
    Z_144_0_1  constraint2_1441  1
    Z_144_0_2  OBJ       -2.8571734895260718e-03
    Z_144_0_2  constraint1_1440  1
    Z_144_0_2  constraint2_1442  1
    Z_144_0_3  OBJ       -7.1562948720582985e-03
    Z_144_0_3  constraint1_1440  1
    Z_144_0_3  constraint2_1443  1
    Z_144_0_4  OBJ       -1.1774006409748755e-01
    Z_144_0_4  constraint1_1440  1
    Z_263_0_0  OBJ       -8.1028025828549621e-04
    Z_263_0_0  constraint1_2630  1
    Z_263_0_0  constraint2_2630  1
    Z_263_0_1  OBJ       -6.4789962327247330e-04
    Z_263_0_1  constraint1_2630  1
    Z_263_0_1  constraint2_2631  1
    Z_263_0_2  OBJ       -6.0462922029563781e-01
    Z_263_0_2  constraint1_2630  1
    Z_263_0_2  constraint2_2632  1
    Z_263_0_3  OBJ       -1.4199724668722007e-03
    Z_263_0_3  constraint1_2630  1
    Z_263_0_3  constraint2_2633  1
    Z_263_0_4  OBJ       -2.9249262735593207e-01
    Z_263_0_4  constraint1_2630  1
    Z_612_0_0  OBJ       -7.7012644232306705e-04
    Z_612_0_0  constraint1_6120  1
    Z_612_0_0  constraint2_6120  1
    Z_612_0_1  OBJ       -1.4914152591134278e-03
    Z_612_0_1  constraint1_6120  1
    Z_612_0_1  constraint2_6121  1
    Z_612_0_2  OBJ       -4.7459125263191643e-01
    Z_612_0_2  constraint1_6120  1
    Z_612_0_2  constraint2_6122  1
    Z_612_0_3  OBJ       -1.8451404050701060e-03
    Z_612_0_3  constraint1_6120  1
    Z_612_0_3  constraint2_6123  1
    Z_612_0_4  OBJ       -4.2130206526157682e-01
    Z_612_0_4  constraint1_6120  1
    Z_700_8_0  OBJ       -2.6871929026560503e-02
    Z_700_8_0  constraint1_7008  1
    Z_700_8_0  constraint2_7000  1
    Z_700_8_1  OBJ       -6.0285995047394082e-03
    Z_700_8_1  constraint1_7008  1
    Z_700_8_1  constraint2_7001  1
    Z_700_8_2  OBJ       -3.0463942628875190e-01
    Z_700_8_2  constraint1_7008  1
    Z_700_8_2  constraint2_7002  1
    Z_700_8_3  OBJ       -9.1587477093306811e-03
    Z_700_8_3  constraint1_7008  1
    Z_700_8_3  constraint2_7003  1
    Z_700_8_4  OBJ       -5.5330129747061763e-01
    Z_700_8_4  constraint1_7008  1
    Z_700_2_0  OBJ       -1.1947412933072986e-02
    Z_700_2_0  constraint1_7002  1
    Z_700_2_0  constraint2_7000  1
    Z_700_2_1  OBJ       -1.9507083522348090e-02
    Z_700_2_1  constraint1_7002  1
    Z_700_2_1  constraint2_7001  1
    Z_700_2_2  OBJ       -1.8007678813618941e-01
    Z_700_2_2  constraint1_7002  1
    Z_700_2_2  constraint2_7002  1
    Z_700_2_3  OBJ       -5.5270696633046784e-03
    Z_700_2_3  constraint1_7002  1
    Z_700_2_3  constraint2_7003  1
    Z_700_2_4  OBJ       -6.8294164574508487e-01
    Z_700_2_4  constraint1_7002  1
    Z_700_4_0  OBJ       -1.1006857007877928e-04
    Z_700_4_0  constraint1_7004  1
    Z_700_4_0  constraint2_7000  1
    Z_700_4_1  OBJ       -1.1844155718000628e-02
    Z_700_4_1  constraint1_7004  1
    Z_700_4_1  constraint2_7001  1
    Z_700_4_2  OBJ       -3.3265239541448333e-01
    Z_700_4_2  constraint1_7004  1
    Z_700_4_2  constraint2_7002  1
    Z_700_4_3  OBJ       -3.4293339462534715e-03
    Z_700_4_3  constraint1_7004  1
    Z_700_4_3  constraint2_7003  1
    Z_700_4_4  OBJ       -5.5196404635118368e-01
    Z_700_4_4  constraint1_7004  1
    Z_700_7_0  OBJ       -1.2954052505968313e-02
    Z_700_7_0  constraint1_7007  1
    Z_700_7_0  constraint2_7000  1
    Z_700_7_1  OBJ       -1.9746421966836195e-01
    Z_700_7_1  constraint1_7007  1
    Z_700_7_1  constraint2_7001  1
    Z_700_7_2  OBJ       -8.5271865320842618e-04
    Z_700_7_2  constraint1_7007  1
    Z_700_7_2  constraint2_7002  1
    Z_700_7_3  OBJ       -7.0313455916904966e-02
    Z_700_7_3  constraint1_7007  1
    Z_700_7_3  constraint2_7003  1
    Z_700_7_4  OBJ       -6.1841555325555631e-01
    Z_700_7_4  constraint1_7007  1
    Z_700_1_0  OBJ       -1.4103454448694632e-03
    Z_700_1_0  constraint1_7001  1
    Z_700_1_0  constraint2_7000  1
    Z_700_1_1  OBJ       -1.9941191735671814e-03
    Z_700_1_1  constraint1_7001  1
    Z_700_1_1  constraint2_7001  1
    Z_700_1_2  OBJ       -9.1554605018799584e-03
    Z_700_1_2  constraint1_7001  1
    Z_700_1_2  constraint2_7002  1
    Z_700_1_3  OBJ       -3.5737918663700861e-03
    Z_700_1_3  constraint1_7001  1
    Z_700_1_3  constraint2_7003  1
    Z_700_1_4  OBJ       -8.8386628301331327e-01
    Z_700_1_4  constraint1_7001  1
    Z_700_3_0  OBJ       -1.1006857007877928e-04
    Z_700_3_0  constraint1_7003  1
    Z_700_3_0  constraint2_7000  1
    Z_700_3_1  OBJ       -1.1844155718000628e-02
    Z_700_3_1  constraint1_7003  1
    Z_700_3_1  constraint2_7001  1
    Z_700_3_2  OBJ       -3.3265239541448333e-01
    Z_700_3_2  constraint1_7003  1
    Z_700_3_2  constraint2_7002  1
    Z_700_3_3  OBJ       -3.4293339462534715e-03
    Z_700_3_3  constraint1_7003  1
    Z_700_3_3  constraint2_7003  1
    Z_700_3_4  OBJ       -5.5196404635118368e-01
    Z_700_3_4  constraint1_7003  1
    Z_700_5_0  OBJ       -3.7097550218223274e-01
    Z_700_5_0  constraint1_7005  1
    Z_700_5_0  constraint2_7000  1
    Z_700_5_1  OBJ       -9.3958576932045512e-02
    Z_700_5_1  constraint1_7005  1
    Z_700_5_1  constraint2_7001  1
    Z_700_5_2  OBJ       -2.1530002107564866e-02
    Z_700_5_2  constraint1_7005  1
    Z_700_5_2  constraint2_7002  1
    Z_700_5_3  OBJ       -1.4915231763100694e-03
    Z_700_5_3  constraint1_7005  1
    Z_700_5_3  constraint2_7003  1
    Z_700_5_4  OBJ       -4.1204439560184686e-01
    Z_700_5_4  constraint1_7005  1
    Z_700_6_0  OBJ       -2.3775263299530822e-02
    Z_700_6_0  constraint1_7006  1
    Z_700_6_0  constraint2_7000  1
    Z_700_6_1  OBJ       -4.7787162937837885e-01
    Z_700_6_1  constraint1_7006  1
    Z_700_6_1  constraint2_7001  1
    Z_700_6_2  OBJ       -2.3436195494441906e-03
    Z_700_6_2  constraint1_7006  1
    Z_700_6_2  constraint2_7002  1
    Z_700_6_3  OBJ       -6.9077443753397624e-02
    Z_700_6_3  constraint1_7006  1
    Z_700_6_3  constraint2_7003  1
    Z_700_6_4  OBJ       -3.2693204401924852e-01
    Z_700_6_4  constraint1_7006  1
    MARKER    'MARKER'                 'INTEND'
RHS
    RHS1      constraint1_7160  1
    RHS1      constraint1_5570  1
    RHS1      constraint1_4040  1
    RHS1      constraint1_6360  1
    RHS1      constraint1_900  1
    RHS1      constraint1_1440  1
    RHS1      constraint1_2630  1
    RHS1      constraint1_6120  1
    RHS1      constraint1_7008  1
    RHS1      constraint1_7002  1
    RHS1      constraint1_7004  1
    RHS1      constraint1_7007  1
    RHS1      constraint1_7001  1
    RHS1      constraint1_7003  1
    RHS1      constraint1_7005  1
    RHS1      constraint1_7006  1
    RHS1      constraint2_7020  1
    RHS1      constraint2_7021  1
    RHS1      constraint2_7022  1
    RHS1      constraint2_7023  1
    RHS1      constraint2_7160  1
    RHS1      constraint2_7161  1
    RHS1      constraint2_7162  1
    RHS1      constraint2_7163  1
    RHS1      constraint2_5570  1
    RHS1      constraint2_5571  1
    RHS1      constraint2_5572  1
    RHS1      constraint2_5573  1
    RHS1      constraint2_4040  1
    RHS1      constraint2_4041  1
    RHS1      constraint2_4042  1
    RHS1      constraint2_4043  1
    RHS1      constraint2_6750  1
    RHS1      constraint2_6751  1
    RHS1      constraint2_6752  1
    RHS1      constraint2_6753  1
    RHS1      constraint2_6360  1
    RHS1      constraint2_6361  1
    RHS1      constraint2_6362  1
    RHS1      constraint2_6363  1
    RHS1      constraint2_3240  1
    RHS1      constraint2_3241  1
    RHS1      constraint2_3242  1
    RHS1      constraint2_3243  1
    RHS1      constraint2_6000  1
    RHS1      constraint2_6001  1
    RHS1      constraint2_6002  1
    RHS1      constraint2_6003  1
    RHS1      constraint2_6290  1
    RHS1      constraint2_6291  1
    RHS1      constraint2_6292  1
    RHS1      constraint2_6293  1
    RHS1      constraint2_900  1
    RHS1      constraint2_901  1
    RHS1      constraint2_902  1
    RHS1      constraint2_903  1
    RHS1      constraint2_6680  1
    RHS1      constraint2_6681  1
    RHS1      constraint2_6682  1
    RHS1      constraint2_6683  1
    RHS1      constraint2_5390  1
    RHS1      constraint2_5391  1
    RHS1      constraint2_5392  1
    RHS1      constraint2_5393  1
    RHS1      constraint2_1440  1
    RHS1      constraint2_1441  1
    RHS1      constraint2_1442  1
    RHS1      constraint2_1443  1
    RHS1      constraint2_2630  1
    RHS1      constraint2_2631  1
    RHS1      constraint2_2632  1
    RHS1      constraint2_2633  1
    RHS1      constraint2_1060  1
    RHS1      constraint2_1061  1
    RHS1      constraint2_1062  1
    RHS1      constraint2_1063  1
    RHS1      constraint2_5630  1
    RHS1      constraint2_5631  1
    RHS1      constraint2_5632  1
    RHS1      constraint2_5633  1
    RHS1      constraint2_6120  1
    RHS1      constraint2_6121  1
    RHS1      constraint2_6122  1
    RHS1      constraint2_6123  1
    RHS1      constraint2_7000  1
    RHS1      constraint2_7001  1
    RHS1      constraint2_7002  1
    RHS1      constraint2_7003  1
BOUNDS
 UP BND1      Z_716_0_0  1
 UP BND1      Z_716_0_1  1
 UP BND1      Z_716_0_2  1
 UP BND1      Z_716_0_3  1
 UP BND1      Z_716_0_4  1
 UP BND1      Z_557_0_0  1
 UP BND1      Z_557_0_1  1
 UP BND1      Z_557_0_2  1
 UP BND1      Z_557_0_3  1
 UP BND1      Z_557_0_4  1
 UP BND1      Z_404_0_0  1
 UP BND1      Z_404_0_1  1
 UP BND1      Z_404_0_2  1
 UP BND1      Z_404_0_3  1
 UP BND1      Z_404_0_4  1
 UP BND1      Z_636_0_0  1
 UP BND1      Z_636_0_1  1
 UP BND1      Z_636_0_2  1
 UP BND1      Z_636_0_3  1
 UP BND1      Z_636_0_4  1
 UP BND1      Z_90_0_0  1
 UP BND1      Z_90_0_1  1
 UP BND1      Z_90_0_2  1
 UP BND1      Z_90_0_3  1
 UP BND1      Z_90_0_4  1
 UP BND1      Z_144_0_0  1
 UP BND1      Z_144_0_1  1
 UP BND1      Z_144_0_2  1
 UP BND1      Z_144_0_3  1
 UP BND1      Z_144_0_4  1
 UP BND1      Z_263_0_0  1
 UP BND1      Z_263_0_1  1
 UP BND1      Z_263_0_2  1
 UP BND1      Z_263_0_3  1
 UP BND1      Z_263_0_4  1
 UP BND1      Z_612_0_0  1
 UP BND1      Z_612_0_1  1
 UP BND1      Z_612_0_2  1
 UP BND1      Z_612_0_3  1
 UP BND1      Z_612_0_4  1
 UP BND1      Z_700_8_0  1
 UP BND1      Z_700_8_1  1
 UP BND1      Z_700_8_2  1
 UP BND1      Z_700_8_3  1
 UP BND1      Z_700_8_4  1
 UP BND1      Z_700_2_0  1
 UP BND1      Z_700_2_1  1
 UP BND1      Z_700_2_2  1
 UP BND1      Z_700_2_3  1
 UP BND1      Z_700_2_4  1
 UP BND1      Z_700_4_0  1
 UP BND1      Z_700_4_1  1
 UP BND1      Z_700_4_2  1
 UP BND1      Z_700_4_3  1
 UP BND1      Z_700_4_4  1
 UP BND1      Z_700_7_0  1
 UP BND1      Z_700_7_1  1
 UP BND1      Z_700_7_2  1
 UP BND1      Z_700_7_3  1
 UP BND1      Z_700_7_4  1
 UP BND1      Z_700_1_0  1
 UP BND1      Z_700_1_1  1
 UP BND1      Z_700_1_2  1
 UP BND1      Z_700_1_3  1
 UP BND1      Z_700_1_4  1
 UP BND1      Z_700_3_0  1
 UP BND1      Z_700_3_1  1
 UP BND1      Z_700_3_2  1
 UP BND1      Z_700_3_3  1
 UP BND1      Z_700_3_4  1
 UP BND1      Z_700_5_0  1
 UP BND1      Z_700_5_1  1
 UP BND1      Z_700_5_2  1
 UP BND1      Z_700_5_3  1
 UP BND1      Z_700_5_4  1
 UP BND1      Z_700_6_0  1
 UP BND1      Z_700_6_1  1
 UP BND1      Z_700_6_2  1
 UP BND1      Z_700_6_3  1
 UP BND1      Z_700_6_4  1
ENDATA
