output/acceleration_ilp.sol
# Solution for model acceleration_srl_ilp
# Objective value = 9.8291147288513940e+00
Z_716_0_0 0
Z_716_0_1 1
Z_716_0_2 0
Z_716_0_3 0
Z_716_0_4 0
Z_557_0_0 0
Z_557_0_1 1
Z_557_0_2 0
Z_557_0_3 0
Z_557_0_4 0
Z_404_0_0 0
Z_404_0_1 1
Z_404_0_2 0
Z_404_0_3 0
Z_404_0_4 0
Z_636_0_0 0
Z_636_0_1 0
Z_636_0_2 1
Z_636_0_3 0
Z_636_0_4 0
Z_90_0_0 0
Z_90_0_1 1
Z_90_0_2 0
Z_90_0_3 0
Z_90_0_4 0
Z_144_0_0 0
Z_144_0_1 1
Z_144_0_2 0
Z_144_0_3 0
Z_144_0_4 0
Z_263_0_0 0
Z_263_0_1 0
Z_263_0_2 1
Z_263_0_3 0
Z_263_0_4 0
Z_612_0_0 0
Z_612_0_1 0
Z_612_0_2 1
Z_612_0_3 0
Z_612_0_4 0
Z_700_8_0 0
Z_700_8_1 0
Z_700_8_2 0
Z_700_8_3 0
Z_700_8_4 1
Z_700_2_0 0
Z_700_2_1 0
Z_700_2_2 0
Z_700_2_3 0
Z_700_2_4 1
Z_700_4_0 0
Z_700_4_1 0
Z_700_4_2 0
Z_700_4_3 0
Z_700_4_4 1
Z_700_7_0 0
Z_700_7_1 0
Z_700_7_2 0
Z_700_7_3 0
Z_700_7_4 1
Z_700_1_0 0
Z_700_1_1 0
Z_700_1_2 0
Z_700_1_3 0
Z_700_1_4 1
Z_700_3_0 0
Z_700_3_1 0
Z_700_3_2 0
Z_700_3_3 0
Z_700_3_4 1
Z_700_5_0 0
Z_700_5_1 0
Z_700_5_2 0
Z_700_5_3 0
Z_700_5_4 1
Z_700_6_0 0
Z_700_6_1 1
Z_700_6_2 0
Z_700_6_3 0
Z_700_6_4 0
